STO c/a optimization
1.0
   5.9634989343792233    0.0000000000000000    0.0000000000000003
   -0.0000000000000003    5.9634989343792233    0.0000000000000003
   0.0000000000000000    0.0000000000000000    6.5598488278171461
Sr Ti O
4 4 12
direct
   0.0000000000000000    0.5000000000000000    0.2500000000000000
   0.5000000000000000    0.0000000000000000    0.2500000000000000
   0.5000000000000000    0.0000000000000000    0.7500000000000000
   0.0000000000000000    0.5000000000000000    0.7500000000000000
   0.5000000000000000    0.5000000000000000    0.5000000000000000
   0.0000000000000000    0.0000000000000000    0.5000000000000000
   0.0000000000000000    0.0000000000000000    0.0000000000000000
   0.5000000000000000    0.5000000000000000    0.0000000000000000
   0.7709574500000000    0.2709574500000000    0.5000000000000000
   0.7290425500000001    0.7709574500000000    0.5000000000000000
   0.2709574500000000    0.2290425499999990    0.5000000000000000
   0.2290425499999990    0.7290425500000001    0.5000000000000000
   0.5000000000000000    0.5000000000000000    0.2500000000000000
   0.0000000000000000    0.0000000000000000    0.2500000000000000
   0.2709574500000000    0.7709574500000000    0.0000000000000000
   0.2290425499999990    0.2709574500000000    0.0000000000000000
   0.7709574500000000    0.7290425500000001    0.0000000000000000
   0.7290425500000001    0.2290425499999990    0.0000000000000000
   0.0000000000000000    0.0000000000000000    0.7500000000000000
   0.5000000000000000    0.5000000000000000    0.7500000000000000
